results/res_prop_muc/res_Cimatti_mathsat_cores/QF_LRA/reint_to_least.base.smt.smt2.res
unsat
( c100
  c1000
  c1003
  c1010
  c1027
  c1031
  c1034
  c1036
  c1037
  c1040
  c1043
  c1045
  c1049
  c1054
  c1072
  c1079
  c1080
  c1081
  c1082
  c1083
  c1088
  c1093
  c1098
  c146
  c147
  c18
  c19
  c216
  c245
  c291
  c405
  c433
  c502
  c504
  c538
  c547
  c556
  c557
  c574
  c578
  c581
  c582
  c583
  c584
  c585
  c590
  c595
  c61
  c619
  c62
  c63
  c64
  c645
  c65
  c66
  c69
  c70
  c71
  c714
  c743
  c76
  c77
  c78
  c789
  c79
  c80
  c81
  c84
  c86
  c87
  c88
  c89
  c903
  c931
  c961
  c98 )
